Solver command line: []

Read LP format model from file C:\Users\wlhlm\AppData\Local\Temp\tmp1emfex_m.pyomo.lp
Reading time = 0.14 seconds
objective: 18493 rows, 16799 columns, 41827 nonzeros
Set parameter TimeLimit to value 5000
Set parameter MIPGap to value 0.2
Gurobi Optimizer version 12.0.1 build v12.0.1rc0 (win64 - Windows 11.0 (26100.2))

CPU model: Intel(R) Core(TM) Ultra 7 258V, instruction set [SSE2|AVX|AVX2]
Thread count: 8 physical cores, 8 logical processors, using up to 8 threads

Non-default parameters:
TimeLimit  5000
MIPGap  0.2

Optimize a model with 18493 rows, 16799 columns and 41827 nonzeros
Model fingerprint: 0x2301c8f0
Model has 167 quadratic constraints
Variable types: 14448 continuous, 2351 integer (2016 binary)
Coefficient statistics:
  Matrix range     [8e-03, 2e+02]
  QMatrix range    [1e+00, 1e+00]
  Objective range  [4e+01, 3e+02]
  Bounds range     [1e+00, 3e+00]
  RHS range        [2e-03, 1e+04]
Presolve removed 16121 rows and 14086 columns
Presolve time: 0.15s
Presolved: 2372 rows, 2713 columns, 7942 nonzeros
Variable types: 2058 continuous, 655 integer (655 binary)
Found heuristic solution: objective 4010725.0679

Root relaxation: interrupted, 2 iterations, 0.00 seconds (0.00 work units)

    Nodes    |    Current Node    |     Objective Bounds      |     Work
 Expl Unexpl |  Obj  Depth IntInf | Incumbent    BestBd   Gap | It/Node Time

     0     0          -    0      4010725.07 3214614.72  19.8%     -    0s

Explored 1 nodes (2 simplex iterations) in 0.18 seconds (0.08 work units)
Thread count was 8 (of 8 available processors)

Solution count 1: 4.01073e+06 

Optimal solution found (tolerance 2.00e-01)
Best objective 4.010725067859e+06, best bound 3.214614715951e+06, gap 19.8495%

